Complete 10
SECTION Graph
Nodes 10
Edges 45
E 1 2 30
E 1 3 40
E 1 4 17
E 1 5 47
E 1 6 3
E 1 7 20
E 1 8 48
E 1 9 11
E 1 10 7
E 2 3 19
E 2 4 38
E 2 5 21
E 2 6 32
E 2 7 6
E 2 8 15
E 2 9 12
E 2 10 16
E 3 4 13
E 3 5 23
E 3 6 48
E 3 7 15
E 3 8 46
E 3 9 35
E 3 10 37
E 4 5 29
E 4 6 44
E 4 7 13
E 4 8 29
E 4 9 49
E 4 10 26
E 5 6 33
E 5 7 27
E 5 8 5
E 5 9 11
E 5 10 37
E 6 7 1
E 6 8 12
E 6 9 19
E 6 10 1
E 6 8 50
E 7 9 7
E 7 10 46
E 8 9 37
E 8 10 44
E 9 10 37
END

SECTION Terminals
Terminals 4
T 8
T 1
T 3
T 4
END

EOF